
Gurobi 6.5.2 (linux64) logging started Tue Sep  6 10:06:17 2016

Optimize a model with 41 rows, 77 columns and 173 nonzeros
Coefficient statistics:
  Matrix range    [1e+00, 2e+00]
  Objective range [8e+00, 1e+02]
  Bounds range    [1e+00, 1e+00]
  RHS range       [1e+00, 1e+00]
Found heuristic solution: objective 1107
Presolve removed 19 rows and 12 columns
Presolve time: 0.00s
Presolved: 22 rows, 65 columns, 126 nonzeros
Variable types: 0 continuous, 65 integer (65 binary)

Root relaxation: objective 7.015000e+02, 26 iterations, 0.00 seconds

    Nodes    |    Current Node    |     Objective Bounds      |     Work
 Expl Unexpl |  Obj  Depth IntInf | Incumbent    BestBd   Gap | It/Node Time

     0     0  701.50000    0   10 1107.00000  701.50000  36.6%     -    0s
H    0     0                    1085.0000000  701.50000  35.3%     -    0s
H    0     0                     997.0000000  701.50000  29.6%     -    0s
     0     0  730.00000    0    6  997.00000  730.00000  26.8%     -    0s
H    0     0                     769.0000000  730.00000  5.07%     -    0s
     0     0  745.00000    0    2  769.00000  745.00000  3.12%     -    0s
     0     0  745.00000    0    5  769.00000  745.00000  3.12%     -    0s
     0     0  745.00000    0    9  769.00000  745.00000  3.12%     -    0s
*    0     0               0     752.0000000  752.00000  0.00%     -    0s

Cutting planes:
  Gomory: 3
  Cover: 6
  Zero half: 2

Explored 0 nodes (68 simplex iterations) in 0.01 seconds
Thread count was 8 (of 8 available processors)

Optimal solution found (tolerance 1.00e-04)
Best objective 7.520000000000e+02, best bound 7.520000000000e+02, gap 0.0%
